NSESSIONS = 4;
NROOMS = 3;
NDAYS = 2;
NPEOPLE = 4;
CAPACITY = 4;
MAX_SESSIONS_PER_PERSON = 3;

% PxS initializazion
pxs = [|true,true,false,false,
       |false,true,false,true,
       |false,true,true,false,
       |false,false,true,true|];
